NAME : amz0142.112757_112757.tour
COMMENT : Cost = 112757_112757
COMMENT : Found by LKH-AMZ [Keld Helsgaun] Sun May 11 14:25:37 2025
COMMENT : TW viol.: 0 #: 0
TYPE : TOUR
DIMENSION : 175
TOUR_SECTION
28
164
124
135
10
18
43
170
93
108
130
140
113
6
136
151
153
55
166
121
173
16
39
71
126
111
139
80
31
171
79
75
72
114
159
143
60
88
17
20
91
35
76
162
110
163
74
3
22
36
169
146
129
26
8
148
128
29
138
27
68
125
46
2
11
52
96
118
7
69
137
81
109
167
50
42
150
21
77
92
53
61
156
103
175
24
132
73
85
155
100
45
165
86
104
119
99
54
62
14
90
78
94
142
145
82
15
116
67
127
65
47
38
174
112
144
168
44
158
152
101
122
154
57
102
19
34
115
37
161
9
64
12
30
120
41
63
107
48
87
149
97
70
83
5
66
56
98
1
160
106
172
123
58
157
49
133
59
23
105
13
134
25
84
147
33
51
4
141
117
89
131
32
40
95
-1
EOF
